dates = {'2021-10-26','2021-10-27','2021-10-28','2021-10-29','2021-10-30','2021-10-31','2021-11-01','2021-11-02','2021-11-03','2021-11-04','2021-11-05','2021-11-06','2021-11-07','2021-11-08','2021-11-09','2021-11-10','2021-11-11','2021-11-12','2021-11-13','2021-11-14','2021-11-15'};

daysOfWeek = [Tuesday,Wednesday,Thursday,Friday,Saturday,Sunday,Monday,Tuesday,Wednesday,Thursday,Friday,Saturday,Sunday,Monday,Tuesday,Wednesday,Thursday,Friday,Saturday,Sunday,Monday];

% For this week, how many people will be here.
numPeople = [42,44,35,35,35,35,41,38,52,52,59,44,44,54,51,51,51,51,51,54,65];

% Physical workers need 50 to 100 % more nutrients per day.
numPhysicalWorkers = [20.5,20.5,20.5,20.5,20.5,20.5,20.5,20.5,20.5,20.5,23.5,23.5,22.5,29.0
,28.0,28.0,28.0,28.0,28.0,28.0,33.0];

% Males need +25% more nutrients per day.
numMen = [36,43,37,30,30,30,36,36,46,46,50,50,36,42,41,38,38,38,38,40,47];

% Num people who do not eat categories. contains = {none, meat, milk, gluten, egg, nut, seed, sugars}
numRefusals = [| 0,0,1,0,0,4,2,3 | 0,0,0,0,6,2,1,1 | 0,0,0,1,0,0,1,0 | 0,0,0,1,0,0,1,0 | 0,0,0,1,0,0,1,0 | 0,0,0,1,0,0,1,0 | 0,1,0,1,0,0,2,0 | 0,0,0,0,3,0,1,0 | 0,3,1,4,1,0,0,4 | 0,3,1,4,1,0,0,4 | 0,0,1,0,0,0,0,0 | 0,0,1,4,0,0,2,5 | 0,0,1,4,0,0,2,5 | 0,0,2,1,0,8,0,6 | 0,4,0,5,1,1,0,1 | 0,4,0,5,1,1,0,1 | 0,4,0,5,1,1,0,1 | 0,4,0,5,1,1,0,1 | 0,4,0,5,1,1,0,1 | 0,1,0,2,0,4,0,0 | 0,0,1,0,2,5,0,0 |];

